134789
66,59,44,10,27,28,87,1,58,76,24,43,79,91,15,60,96,78,3,101,94,70,18,7,49,37,39,33,84,53,63,32,75,4,103,61,47,14,102,74,83,57,80,89,93,12,29,30,55,5,52,65,31,98,106,97,8,92,23,34,26,50,68,19,9,42,81,46,77,40,6,69,88,13,56,20,16,64,90,17,21,22,62,86,25,45,100,99,35,51,82,72,2,73,48,85,36,71,54,95,38,105,104,67,41,11